(set-info :smt-lib-version 2.6)
(set-logic UFLIA)
(set-info :source |Benchmarks from the paper: "Extending Sledgehammer with SMT Solvers" by Jasmin Blanchette, Sascha Bohme, and Lawrence C. Paulson, CADE 2011.  Translated to SMT2 by Andrew Reynolds and Morgan Deters.|)
(set-info :category "industrial")
(set-info :status unknown)
(declare-sort S1 0)
(declare-sort S2 0)
(declare-sort S3 0)
(declare-sort S4 0)
(declare-sort S5 0)
(declare-sort S6 0)
(declare-sort S7 0)
(declare-sort S8 0)
(declare-sort S9 0)
(declare-sort S10 0)
(declare-sort S11 0)
(declare-sort S12 0)
(declare-sort S13 0)
(declare-sort S14 0)
(declare-sort S15 0)
(declare-sort S16 0)
(declare-sort S17 0)
(declare-sort S18 0)
(declare-sort S19 0)
(declare-sort S20 0)
(declare-sort S21 0)
(declare-sort S22 0)
(declare-sort S23 0)
(declare-sort S24 0)
(declare-sort S25 0)
(declare-sort S26 0)
(declare-sort S27 0)
(declare-sort S28 0)
(declare-sort S29 0)
(declare-sort S30 0)
(declare-sort S31 0)
(declare-sort S32 0)
(declare-sort S33 0)
(declare-sort S34 0)
(declare-sort S35 0)
(declare-sort S36 0)
(declare-sort S37 0)
(declare-sort S38 0)
(declare-sort S39 0)
(declare-sort S40 0)
(declare-sort S41 0)
(declare-sort S42 0)
(declare-fun f1 () S1)
(declare-fun f2 () S1)
(declare-fun f3 (S3 S2) S4)
(declare-fun f4 () S3)
(declare-fun f5 (S5 S6) S4)
(declare-fun f6 (S7 S8) S5)
(declare-fun f7 (S9 S6) S7)
(declare-fun f8 () S9)
(declare-fun f9 () S6)
(declare-fun f10 (S10 S11) S8)
(declare-fun f11 () S10)
(declare-fun f12 (S2) S11)
(declare-fun f13 () S6)
(declare-fun f14 () S3)
(declare-fun f15 (S12 S2) S8)
(declare-fun f16 () S12)
(declare-fun f17 (S14 S13) S3)
(declare-fun f18 (S15 S13) S14)
(declare-fun f19 () S15)
(declare-fun f20 (S13 S2) S6)
(declare-fun f21 () S15)
(declare-fun f22 (S16 S4) S1)
(declare-fun f23 (S17 S16) S16)
(declare-fun f24 (S16) S17)
(declare-fun f25 (S4 S16) S1)
(declare-fun f26 (S18 S2) S1)
(declare-fun f27 (S19 S18) S18)
(declare-fun f28 (S18) S19)
(declare-fun f29 (S2 S18) S1)
(declare-fun f30 (S4) S17)
(declare-fun f31 (S2) S19)
(declare-fun f32 (S4) S17)
(declare-fun f33 (S2) S19)
(declare-fun f34 (S21 S3) S3)
(declare-fun f35 (S22 S20) S21)
(declare-fun f36 () S22)
(declare-fun f37 (S20 S4) S4)
(declare-fun f38 (S24 S2) S2)
(declare-fun f39 (S25 S3) S24)
(declare-fun f40 (S26 S23) S25)
(declare-fun f41 () S26)
(declare-fun f42 (S23 S4) S2)
(declare-fun f43 (S27 S23) S20)
(declare-fun f44 (S28 S3) S27)
(declare-fun f45 () S28)
(declare-fun f46 (S29 S24) S3)
(declare-fun f47 (S30 S3) S29)
(declare-fun f48 () S30)
(declare-fun f49 (S31 S4) S20)
(declare-fun f50 () S31)
(declare-fun f51 (S32 S4) S3)
(declare-fun f52 () S32)
(declare-fun f53 (S33 S2) S23)
(declare-fun f54 () S33)
(declare-fun f55 (S34 S2) S24)
(declare-fun f56 () S34)
(declare-fun f57 () S20)
(declare-fun f58 () S24)
(declare-fun f59 () S16)
(declare-fun f60 () S18)
(declare-fun f61 (S16 S16) S1)
(declare-fun f62 (S16) S17)
(declare-fun f63 () S16)
(declare-fun f64 (S35 S18) S16)
(declare-fun f65 (S3) S35)
(declare-fun f66 () S18)
(declare-fun f67 (S4) S17)
(declare-fun f68 () S2)
(declare-fun f69 () S16)
(declare-fun f70 (S38 S37) S1)
(declare-fun f71 (S6 S36) S38)
(declare-fun f72 () S18)
(declare-fun f73 (S39 S16) S18)
(declare-fun f74 (S23) S39)
(declare-fun f75 (S2) S19)
(declare-fun f76 (S24) S19)
(declare-fun f77 (S20) S17)
(declare-fun f78 (S18) S19)
(declare-fun f79 (S40) S16)
(declare-fun f80 (S41 Int) S40)
(declare-fun f81 () S41)
(declare-fun f82 (S42 S40) Int)
(declare-fun f83 () S42)
(declare-fun f84 (S16) S16)
(declare-fun f85 (S18) S18)
(assert (not (= f1 f2)))
(assert (forall ((?v0 S2)) (= (f3 f4 ?v0) (f5 (f6 (f7 f8 f9) (f10 f11 (f12 ?v0))) f13))))
(assert (forall ((?v0 S2)) (= (f3 f14 ?v0) (f5 (f6 (f7 f8 f9) (f15 f16 ?v0)) f13))))
(assert (forall ((?v0 S13) (?v1 S13) (?v2 S2)) (= (f3 (f17 (f18 f19 ?v0) ?v1) ?v2) (f5 (f6 (f7 f8 (f20 ?v0 ?v2)) (f10 f11 (f12 ?v2))) (f20 ?v1 ?v2)))))
(assert (forall ((?v0 S13) (?v1 S13) (?v2 S2)) (= (f3 (f17 (f18 f21 ?v0) ?v1) ?v2) (f5 (f6 (f7 f8 (f20 ?v0 ?v2)) (f15 f16 ?v2)) (f20 ?v1 ?v2)))))
(assert (forall ((?v0 S16) (?v1 S16) (?v2 S4)) (= (= (f22 (f23 (f24 ?v0) ?v1) ?v2) f1) (or (= (f25 ?v2 ?v0) f1) (= (f25 ?v2 ?v1) f1)))))
(assert (forall ((?v0 S18) (?v1 S18) (?v2 S2)) (= (= (f26 (f27 (f28 ?v0) ?v1) ?v2) f1) (or (= (f29 ?v2 ?v0) f1) (= (f29 ?v2 ?v1) f1)))))
(assert (forall ((?v0 S4) (?v1 S16) (?v2 S4)) (= (= (f22 (f23 (f30 ?v0) ?v1) ?v2) f1) (or (= ?v2 ?v0) (= (f25 ?v2 ?v1) f1)))))
(assert (forall ((?v0 S2) (?v1 S18) (?v2 S2)) (= (= (f26 (f27 (f31 ?v0) ?v1) ?v2) f1) (or (= ?v2 ?v0) (= (f29 ?v2 ?v1) f1)))))
(assert (forall ((?v0 S4) (?v1 S16) (?v2 S4)) (= (= (f22 (f23 (f32 ?v0) ?v1) ?v2) f1) (=> (not (= ?v2 ?v0)) (= (f22 ?v1 ?v2) f1)))))
(assert (forall ((?v0 S2) (?v1 S18) (?v2 S2)) (= (= (f26 (f27 (f33 ?v0) ?v1) ?v2) f1) (=> (not (= ?v2 ?v0)) (= (f26 ?v1 ?v2) f1)))))
(assert (forall ((?v0 S20) (?v1 S3) (?v2 S2)) (= (f3 (f34 (f35 f36 ?v0) ?v1) ?v2) (f37 ?v0 (f3 ?v1 ?v2)))))
(assert (forall ((?v0 S23) (?v1 S3) (?v2 S2)) (= (f38 (f39 (f40 f41 ?v0) ?v1) ?v2) (f42 ?v0 (f3 ?v1 ?v2)))))
(assert (forall ((?v0 S3) (?v1 S23) (?v2 S4)) (= (f37 (f43 (f44 f45 ?v0) ?v1) ?v2) (f3 ?v0 (f42 ?v1 ?v2)))))
(assert (forall ((?v0 S3) (?v1 S24) (?v2 S2)) (= (f3 (f46 (f47 f48 ?v0) ?v1) ?v2) (f3 ?v0 (f38 ?v1 ?v2)))))
(assert (forall ((?v0 S4) (?v1 S4)) (= (f37 (f49 f50 ?v0) ?v1) ?v0)))
(assert (forall ((?v0 S4) (?v1 S2)) (= (f3 (f51 f52 ?v0) ?v1) ?v0)))
(assert (forall ((?v0 S2) (?v1 S4)) (= (f42 (f53 f54 ?v0) ?v1) ?v0)))
(assert (forall ((?v0 S2) (?v1 S2)) (= (f38 (f55 f56 ?v0) ?v1) ?v0)))
(assert (forall ((?v0 S4)) (= (f37 f57 ?v0) ?v0)))
(assert (forall ((?v0 S2)) (= (f38 f58 ?v0) ?v0)))
(assert (forall ((?v0 S4)) (= (= (f22 f59 ?v0) f1) false)))
(assert (forall ((?v0 S2)) (= (= (f26 f60 ?v0) f1) false)))
(assert (not (= (f61 (f23 (f62 f63) (f64 (f65 f14) f66)) (f64 (f65 f4) f66)) f1)))
(assert (let ((?v_0 (f7 f8 f9))) (= (f61 (f23 (f67 (f5 (f6 ?v_0 (f15 f16 f68)) f13)) f63) (f23 (f67 (f5 (f6 ?v_0 (f10 f11 (f12 f68))) f13)) f69)) f1)))
(assert (forall ((?v0 S16)) (= (f61 ?v0 f69) f1)))
(assert (forall ((?v0 S6) (?v1 S8) (?v2 S6) (?v3 S6) (?v4 S8) (?v5 S6)) (= (= (f5 (f6 (f7 f8 ?v0) ?v1) ?v2) (f5 (f6 (f7 f8 ?v3) ?v4) ?v5)) (and (= ?v0 ?v3) (and (= ?v1 ?v4) (= ?v2 ?v5))))))
(assert (forall ((?v0 S16) (?v1 S16) (?v2 S16)) (=> (= (f61 ?v0 ?v1) f1) (=> (= (f61 ?v2 ?v0) f1) (= (f61 ?v2 ?v1) f1)))))
(assert (forall ((?v0 S16) (?v1 S4) (?v2 S16)) (let ((?v_0 (f67 ?v1))) (=> (= (f61 ?v0 (f23 ?v_0 f69)) f1) (=> (= (f61 ?v0 ?v2) f1) (= (f61 ?v0 (f23 ?v_0 ?v2)) f1))))))
(assert (forall ((?v0 S16) (?v1 S13) (?v2 S13) (?v3 S18)) (let ((?v_0 (f64 (f65 (f17 (f18 f21 ?v1) ?v2)) ?v3))) (=> (= (f61 (f23 (f62 ?v0) ?v_0) (f64 (f65 (f17 (f18 f19 ?v1) ?v2)) ?v3)) f1) (= (f61 ?v0 ?v_0) f1)))))
(assert (forall ((?v0 S16) (?v1 S13) (?v2 S13) (?v3 S18) (?v4 S2)) (=> (= (f61 (f23 (f62 ?v0) (f64 (f65 (f17 (f18 f21 ?v1) ?v2)) ?v3)) (f64 (f65 (f17 (f18 f19 ?v1) ?v2)) ?v3)) f1) (=> (= (f29 ?v4 ?v3) f1) (= (f61 ?v0 (f23 (f67 (f5 (f6 (f7 f8 (f20 ?v1 ?v4)) (f15 f16 ?v4)) (f20 ?v2 ?v4))) f69)) f1)))))
(assert (forall ((?v0 S16) (?v1 S6) (?v2 S8) (?v3 S6) (?v4 S6)) (let ((?v_0 (f6 (f7 f8 ?v1) ?v2))) (=> (= (f61 ?v0 (f23 (f67 (f5 ?v_0 ?v3)) f69)) f1) (=> (forall ((?v5 S36) (?v6 S37)) (=> (= (f70 (f71 ?v3 ?v5) ?v6) f1) (= (f70 (f71 ?v4 ?v5) ?v6) f1))) (= (f61 ?v0 (f23 (f67 (f5 ?v_0 ?v4)) f69)) f1))))))
(assert (forall ((?v0 S16) (?v1 S6) (?v2 S8) (?v3 S6) (?v4 S6)) (=> (= (f61 ?v0 (f23 (f67 (f5 (f6 (f7 f8 ?v1) ?v2) ?v3)) f69)) f1) (=> (forall ((?v5 S36) (?v6 S37)) (=> (= (f70 (f71 ?v4 ?v5) ?v6) f1) (= (f70 (f71 ?v1 ?v5) ?v6) f1))) (= (f61 ?v0 (f23 (f67 (f5 (f6 (f7 f8 ?v4) ?v2) ?v3)) f69)) f1)))))
(assert (forall ((?v0 S4) (?v1 S18)) (= (f64 (f65 (f51 f52 ?v0)) ?v1) (ite (= ?v1 f72) f69 (f23 (f67 ?v0) f69)))))
(assert (forall ((?v0 S2) (?v1 S16)) (= (f73 (f74 (f53 f54 ?v0)) ?v1) (ite (= ?v1 f69) f72 (f27 (f75 ?v0) f72)))))
(assert (forall ((?v0 S2) (?v1 S18)) (= (f27 (f76 (f55 f56 ?v0)) ?v1) (ite (= ?v1 f72) f72 (f27 (f75 ?v0) f72)))))
(assert (forall ((?v0 S4) (?v1 S16)) (= (f23 (f77 (f49 f50 ?v0)) ?v1) (ite (= ?v1 f69) f69 (f23 (f67 ?v0) f69)))))
(assert (forall ((?v0 S2) (?v1 S18) (?v2 S4)) (=> (= (f29 ?v0 ?v1) f1) (= (f64 (f65 (f51 f52 ?v2)) ?v1) (f23 (f67 ?v2) f69)))))
(assert (forall ((?v0 S4) (?v1 S16) (?v2 S4)) (=> (= (f25 ?v0 ?v1) f1) (= (f23 (f77 (f49 f50 ?v2)) ?v1) (f23 (f67 ?v2) f69)))))
(assert (forall ((?v0 S2) (?v1 S18) (?v2 S2)) (=> (= (f29 ?v0 ?v1) f1) (= (f27 (f76 (f55 f56 ?v2)) ?v1) (f27 (f75 ?v2) f72)))))
(assert (forall ((?v0 S4) (?v1 S16) (?v2 S2)) (=> (= (f25 ?v0 ?v1) f1) (= (f73 (f74 (f53 f54 ?v2)) ?v1) (f27 (f75 ?v2) f72)))))
(assert (forall ((?v0 S4) (?v1 S16)) (let ((?v_0 (f67 ?v0))) (= (f23 ?v_0 ?v1) (f23 (f62 (f23 ?v_0 f69)) ?v1)))))
(assert (forall ((?v0 S2) (?v1 S18)) (let ((?v_0 (f75 ?v0))) (= (f27 ?v_0 ?v1) (f27 (f78 (f27 ?v_0 f72)) ?v1)))))
(assert (forall ((?v0 S16) (?v1 S6) (?v2 S8) (?v3 S6) (?v4 S6) (?v5 S6)) (=> (= (f61 ?v0 (f23 (f67 (f5 (f6 (f7 f8 ?v1) ?v2) ?v3)) f69)) f1) (=> (forall ((?v6 S36) (?v7 S37)) (=> (= (f70 (f71 ?v4 ?v6) ?v7) f1) (forall ((?v8 S37)) (=> (forall ((?v9 S36)) (=> (= (f70 (f71 ?v1 ?v9) ?v7) f1) (= (f70 (f71 ?v3 ?v9) ?v8) f1))) (= (f70 (f71 ?v5 ?v6) ?v8) f1))))) (= (f61 ?v0 (f23 (f67 (f5 (f6 (f7 f8 ?v4) ?v2) ?v5)) f69)) f1)))))
(assert (forall ((?v0 S40) (?v1 S6) (?v2 S2) (?v3 S6)) (let ((?v_0 (f7 f8 ?v1))) (= (= (f22 (f79 ?v0) (f5 (f6 ?v_0 (f10 f11 (f12 ?v2))) ?v3)) f1) (= (f22 (f79 (f80 f81 (+ (f82 f83 ?v0) 1))) (f5 (f6 ?v_0 (f15 f16 ?v2)) ?v3)) f1)))))
(assert (forall ((?v0 S2) (?v1 S18) (?v2 S18)) (=> (= (f29 ?v0 (f27 (f78 ?v1) ?v2)) f1) (=> (=> (= (f29 ?v0 ?v1) f1) false) (=> (=> (= (f29 ?v0 ?v2) f1) false) false)))))
(assert (forall ((?v0 S4) (?v1 S16) (?v2 S16)) (=> (= (f25 ?v0 (f23 (f62 ?v1) ?v2)) f1) (=> (=> (= (f25 ?v0 ?v1) f1) false) (=> (=> (= (f25 ?v0 ?v2) f1) false) false)))))
(assert (forall ((?v0 S16) (?v1 S16) (?v2 S4)) (=> (= (f22 (f23 (f62 ?v0) ?v1) ?v2) f1) (=> (=> (= (f22 ?v0 ?v2) f1) false) (=> (=> (= (f22 ?v1 ?v2) f1) false) false)))))
(assert (forall ((?v0 S18) (?v1 S18) (?v2 S2)) (=> (= (f26 (f27 (f78 ?v0) ?v1) ?v2) f1) (=> (=> (= (f26 ?v0 ?v2) f1) false) (=> (=> (= (f26 ?v1 ?v2) f1) false) false)))))
(assert (forall ((?v0 S16) (?v1 S4) (?v2 S16)) (=> (=> (not (= (f22 ?v0 ?v1) f1)) (= (f22 ?v2 ?v1) f1)) (= (f22 (f23 (f62 ?v2) ?v0) ?v1) f1))))
(assert (forall ((?v0 S18) (?v1 S2) (?v2 S18)) (=> (=> (not (= (f26 ?v0 ?v1) f1)) (= (f26 ?v2 ?v1) f1)) (= (f26 (f27 (f78 ?v2) ?v0) ?v1) f1))))
(assert (forall ((?v0 S2) (?v1 S18) (?v2 S18)) (=> (=> (not (= (f29 ?v0 ?v1) f1)) (= (f29 ?v0 ?v2) f1)) (= (f29 ?v0 (f27 (f78 ?v2) ?v1)) f1))))
(assert (forall ((?v0 S4) (?v1 S16) (?v2 S16)) (=> (=> (not (= (f25 ?v0 ?v1) f1)) (= (f25 ?v0 ?v2) f1)) (= (f25 ?v0 (f23 (f62 ?v2) ?v1)) f1))))
(assert (forall ((?v0 S4) (?v1 S3) (?v2 S2) (?v3 S18)) (=> (= ?v0 (f3 ?v1 ?v2)) (=> (= (f29 ?v2 ?v3) f1) (= (f25 ?v0 (f64 (f65 ?v1) ?v3)) f1)))))
(assert (forall ((?v0 S2) (?v1 S23) (?v2 S4) (?v3 S16)) (=> (= ?v0 (f42 ?v1 ?v2)) (=> (= (f25 ?v2 ?v3) f1) (= (f29 ?v0 (f73 (f74 ?v1) ?v3)) f1)))))
(assert (forall ((?v0 S2) (?v1 S24) (?v2 S2) (?v3 S18)) (=> (= ?v0 (f38 ?v1 ?v2)) (=> (= (f29 ?v2 ?v3) f1) (= (f29 ?v0 (f27 (f76 ?v1) ?v3)) f1)))))
(assert (forall ((?v0 S4) (?v1 S20) (?v2 S4) (?v3 S16)) (=> (= ?v0 (f37 ?v1 ?v2)) (=> (= (f25 ?v2 ?v3) f1) (= (f25 ?v0 (f23 (f77 ?v1) ?v3)) f1)))))
(assert (forall ((?v0 S2)) (=> (= (f29 ?v0 f72) f1) false)))
(assert (forall ((?v0 S4)) (=> (= (f25 ?v0 f69) f1) false)))
(assert (forall ((?v0 S4) (?v1 S16) (?v2 S4)) (=> (=> (not (= (f25 ?v0 ?v1) f1)) (= ?v0 ?v2)) (= (f25 ?v0 (f23 (f67 ?v2) ?v1)) f1))))
(assert (forall ((?v0 S2) (?v1 S18) (?v2 S2)) (=> (=> (not (= (f29 ?v0 ?v1) f1)) (= ?v0 ?v2)) (= (f29 ?v0 (f27 (f75 ?v2) ?v1)) f1))))
(assert (forall ((?v0 S4) (?v1 S4) (?v2 S16)) (=> (= (f25 ?v0 (f23 (f67 ?v1) ?v2)) f1) (=> (=> (= ?v0 ?v1) false) (=> (=> (= (f25 ?v0 ?v2) f1) false) false)))))
(assert (forall ((?v0 S2) (?v1 S2) (?v2 S18)) (=> (= (f29 ?v0 (f27 (f75 ?v1) ?v2)) f1) (=> (=> (= ?v0 ?v1) false) (=> (=> (= (f29 ?v0 ?v2) f1) false) false)))))
(assert (forall ((?v0 S40) (?v1 S4)) (=> (= (f22 (f79 (f80 f81 (+ (f82 f83 ?v0) 1))) ?v1) f1) (= (f22 (f79 ?v0) ?v1) f1))))
(assert (forall ((?v0 S16) (?v1 S40)) (=> (forall ((?v2 S4)) (=> (= (f25 ?v2 ?v0) f1) (= (f22 (f79 (f80 f81 (+ (f82 f83 ?v1) 1))) ?v2) f1))) (forall ((?v2 S4)) (=> (= (f25 ?v2 ?v0) f1) (= (f22 (f79 ?v1) ?v2) f1))))))
(assert (forall ((?v0 S18) (?v1 S2)) (=> (= ?v0 f72) (not (= (f29 ?v1 ?v0) f1)))))
(assert (forall ((?v0 S16) (?v1 S4)) (=> (= ?v0 f69) (not (= (f25 ?v1 ?v0) f1)))))
(assert (forall ((?v0 S16)) (= (= (f84 ?v0) f69) (forall ((?v1 S4)) (not (= (f22 ?v0 ?v1) f1))))))
(assert (forall ((?v0 S18)) (= (= (f85 ?v0) f72) (forall ((?v1 S2)) (not (= (f26 ?v0 ?v1) f1))))))
(assert (forall ((?v0 S2)) (= (= (f29 ?v0 f72) f1) false)))
(assert (forall ((?v0 S4)) (= (= (f25 ?v0 f69) f1) false)))
(assert (forall ((?v0 S16)) (= (= f69 (f84 ?v0)) (forall ((?v1 S4)) (not (= (f22 ?v0 ?v1) f1))))))
(assert (forall ((?v0 S18)) (= (= f72 (f85 ?v0)) (forall ((?v1 S2)) (not (= (f26 ?v0 ?v1) f1))))))
(assert (forall ((?v0 S18)) (= (forall ((?v1 S2)) (=> (= (f29 ?v1 f72) f1) (= (f26 ?v0 ?v1) f1))) true)))
(assert (forall ((?v0 S16)) (= (forall ((?v1 S4)) (=> (= (f25 ?v1 f69) f1) (= (f22 ?v0 ?v1) f1))) true)))
(assert (forall ((?v0 S18)) (= (exists ((?v1 S2)) (and (= (f29 ?v1 f72) f1) (= (f26 ?v0 ?v1) f1))) false)))
(assert (forall ((?v0 S16)) (= (exists ((?v1 S4)) (and (= (f25 ?v1 f69) f1) (= (f22 ?v0 ?v1) f1))) false)))
(assert (forall ((?v0 S18)) (= (exists ((?v1 S2)) (= (f29 ?v1 ?v0) f1)) (not (= ?v0 f72)))))
(assert (forall ((?v0 S16)) (= (exists ((?v1 S4)) (= (f25 ?v1 ?v0) f1)) (not (= ?v0 f69)))))
(assert (forall ((?v0 S18)) (= (forall ((?v1 S2)) (not (= (f29 ?v1 ?v0) f1))) (= ?v0 f72))))
(assert (forall ((?v0 S16)) (= (forall ((?v1 S4)) (not (= (f25 ?v1 ?v0) f1))) (= ?v0 f69))))
(assert (= f69 (f84 f59)))
(assert (= f72 (f85 f60)))
(assert (forall ((?v0 S2)) (= (= (f26 f72 ?v0) f1) (= (f29 ?v0 f72) f1))))
(assert (forall ((?v0 S4)) (= (= (f22 f69 ?v0) f1) (= (f25 ?v0 f69) f1))))
(assert (forall ((?v0 S4) (?v1 S16)) (=> (= (f25 ?v0 ?v1) f1) (= (f23 (f67 ?v0) ?v1) ?v1))))
(assert (forall ((?v0 S2) (?v1 S18)) (=> (= (f29 ?v0 ?v1) f1) (= (f27 (f75 ?v0) ?v1) ?v1))))
(assert (forall ((?v0 S4) (?v1 S16) (?v2 S4)) (=> (= (f25 ?v0 ?v1) f1) (= (f25 ?v0 (f23 (f67 ?v2) ?v1)) f1))))
(assert (forall ((?v0 S2) (?v1 S18) (?v2 S2)) (=> (= (f29 ?v0 ?v1) f1) (= (f29 ?v0 (f27 (f75 ?v2) ?v1)) f1))))
(assert (forall ((?v0 S4) (?v1 S16) (?v2 S16)) (let ((?v_0 (f67 ?v0))) (=> (not (= (f25 ?v0 ?v1) f1)) (=> (not (= (f25 ?v0 ?v2) f1)) (= (= (f23 ?v_0 ?v1) (f23 ?v_0 ?v2)) (= ?v1 ?v2)))))))
(assert (forall ((?v0 S2) (?v1 S18) (?v2 S18)) (let ((?v_0 (f75 ?v0))) (=> (not (= (f29 ?v0 ?v1) f1)) (=> (not (= (f29 ?v0 ?v2) f1)) (= (= (f27 ?v_0 ?v1) (f27 ?v_0 ?v2)) (= ?v1 ?v2)))))))
(assert (forall ((?v0 S4) (?v1 S16) (?v2 S4)) (= (= (f22 (f23 (f67 ?v0) ?v1) ?v2) f1) (or (= ?v0 ?v2) (= (f22 ?v1 ?v2) f1)))))
(assert (forall ((?v0 S2) (?v1 S18) (?v2 S2)) (= (= (f26 (f27 (f75 ?v0) ?v1) ?v2) f1) (or (= ?v0 ?v2) (= (f26 ?v1 ?v2) f1)))))
(assert (forall ((?v0 S4) (?v1 S4) (?v2 S16)) (= (= (f25 ?v0 (f23 (f67 ?v1) ?v2)) f1) (or (= ?v0 ?v1) (= (f25 ?v0 ?v2) f1)))))
(assert (forall ((?v0 S2) (?v1 S2) (?v2 S18)) (= (= (f29 ?v0 (f27 (f75 ?v1) ?v2)) f1) (or (= ?v0 ?v1) (= (f29 ?v0 ?v2) f1)))))
(assert (forall ((?v0 S4) (?v1 S4) (?v2 S16)) (let ((?v_1 (f67 ?v0)) (?v_0 (f67 ?v1))) (= (f23 ?v_1 (f23 ?v_0 ?v2)) (f23 ?v_0 (f23 ?v_1 ?v2))))))
(assert (forall ((?v0 S2) (?v1 S2) (?v2 S18)) (let ((?v_1 (f75 ?v0)) (?v_0 (f75 ?v1))) (= (f27 ?v_1 (f27 ?v_0 ?v2)) (f27 ?v_0 (f27 ?v_1 ?v2))))))
(assert (forall ((?v0 S4) (?v1 S16)) (let ((?v_0 (f67 ?v0))) (let ((?v_1 (f23 ?v_0 ?v1))) (= (f23 ?v_0 ?v_1) ?v_1)))))
(assert (forall ((?v0 S2) (?v1 S18)) (let ((?v_0 (f75 ?v0))) (let ((?v_1 (f27 ?v_0 ?v1))) (= (f27 ?v_0 ?v_1) ?v_1)))))
(assert (forall ((?v0 S4) (?v1 S16)) (= (f23 (f67 ?v0) (f84 ?v1)) (f84 (f23 (f32 ?v0) ?v1)))))
(assert (forall ((?v0 S2) (?v1 S18)) (= (f27 (f75 ?v0) (f85 ?v1)) (f85 (f27 (f33 ?v0) ?v1)))))
(assert (forall ((?v0 S4) (?v1 S16)) (= (f23 (f67 ?v0) ?v1) (f84 (f23 (f30 ?v0) ?v1)))))
(assert (forall ((?v0 S2) (?v1 S18)) (= (f27 (f75 ?v0) ?v1) (f85 (f27 (f31 ?v0) ?v1)))))
(assert (forall ((?v0 S4) (?v1 S16)) (= (f25 ?v0 (f23 (f67 ?v0) ?v1)) f1)))
(assert (forall ((?v0 S2) (?v1 S18)) (= (f29 ?v0 (f27 (f75 ?v0) ?v1)) f1)))
(assert (forall ((?v0 S2) (?v1 S18) (?v2 S4) (?v3 S3)) (=> (= (f29 ?v0 ?v1) f1) (=> (= ?v2 (f3 ?v3 ?v0)) (= (f25 ?v2 (f64 (f65 ?v3) ?v1)) f1)))))
(assert (forall ((?v0 S4) (?v1 S16) (?v2 S2) (?v3 S23)) (=> (= (f25 ?v0 ?v1) f1) (=> (= ?v2 (f42 ?v3 ?v0)) (= (f29 ?v2 (f73 (f74 ?v3) ?v1)) f1)))))
(assert (forall ((?v0 S2) (?v1 S18) (?v2 S2) (?v3 S24)) (=> (= (f29 ?v0 ?v1) f1) (=> (= ?v2 (f38 ?v3 ?v0)) (= (f29 ?v2 (f27 (f76 ?v3) ?v1)) f1)))))
(assert (forall ((?v0 S4) (?v1 S16) (?v2 S4) (?v3 S20)) (=> (= (f25 ?v0 ?v1) f1) (=> (= ?v2 (f37 ?v3 ?v0)) (= (f25 ?v2 (f23 (f77 ?v3) ?v1)) f1)))))
(assert (forall ((?v0 S2) (?v1 S18) (?v2 S3)) (=> (= (f29 ?v0 ?v1) f1) (= (f25 (f3 ?v2 ?v0) (f64 (f65 ?v2) ?v1)) f1))))
(assert (forall ((?v0 S4) (?v1 S16) (?v2 S23)) (=> (= (f25 ?v0 ?v1) f1) (= (f29 (f42 ?v2 ?v0) (f73 (f74 ?v2) ?v1)) f1))))
(assert (forall ((?v0 S2) (?v1 S18) (?v2 S24)) (=> (= (f29 ?v0 ?v1) f1) (= (f29 (f38 ?v2 ?v0) (f27 (f76 ?v2) ?v1)) f1))))
(assert (forall ((?v0 S4) (?v1 S16) (?v2 S20)) (=> (= (f25 ?v0 ?v1) f1) (= (f25 (f37 ?v2 ?v0) (f23 (f77 ?v2) ?v1)) f1))))
(assert (forall ((?v0 S4) (?v1 S3) (?v2 S18)) (= (= (f25 ?v0 (f64 (f65 ?v1) ?v2)) f1) (exists ((?v3 S2)) (and (= (f29 ?v3 ?v2) f1) (= ?v0 (f3 ?v1 ?v3)))))))
(assert (forall ((?v0 S2) (?v1 S23) (?v2 S16)) (= (= (f29 ?v0 (f73 (f74 ?v1) ?v2)) f1) (exists ((?v3 S4)) (and (= (f25 ?v3 ?v2) f1) (= ?v0 (f42 ?v1 ?v3)))))))
(assert (forall ((?v0 S2) (?v1 S24) (?v2 S18)) (= (= (f29 ?v0 (f27 (f76 ?v1) ?v2)) f1) (exists ((?v3 S2)) (and (= (f29 ?v3 ?v2) f1) (= ?v0 (f38 ?v1 ?v3)))))))
(assert (forall ((?v0 S4) (?v1 S20) (?v2 S16)) (= (= (f25 ?v0 (f23 (f77 ?v1) ?v2)) f1) (exists ((?v3 S4)) (and (= (f25 ?v3 ?v2) f1) (= ?v0 (f37 ?v1 ?v3)))))))
(assert (forall ((?v0 S2) (?v1 S18) (?v2 S18)) (=> (= (f29 ?v0 ?v1) f1) (= (f29 ?v0 (f27 (f78 ?v2) ?v1)) f1))))
(assert (forall ((?v0 S4) (?v1 S16) (?v2 S16)) (=> (= (f25 ?v0 ?v1) f1) (= (f25 ?v0 (f23 (f62 ?v2) ?v1)) f1))))
(assert (forall ((?v0 S2) (?v1 S18) (?v2 S18)) (=> (= (f29 ?v0 ?v1) f1) (= (f29 ?v0 (f27 (f78 ?v1) ?v2)) f1))))
(assert (forall ((?v0 S4) (?v1 S16) (?v2 S16)) (=> (= (f25 ?v0 ?v1) f1) (= (f25 ?v0 (f23 (f62 ?v1) ?v2)) f1))))
(assert (forall ((?v0 S16) (?v1 S4) (?v2 S16)) (=> (= (f22 ?v0 ?v1) f1) (= (f22 (f23 (f62 ?v2) ?v0) ?v1) f1))))
(assert (forall ((?v0 S18) (?v1 S2) (?v2 S18)) (=> (= (f26 ?v0 ?v1) f1) (= (f26 (f27 (f78 ?v2) ?v0) ?v1) f1))))
(assert (forall ((?v0 S16) (?v1 S4) (?v2 S16)) (=> (= (f22 ?v0 ?v1) f1) (= (f22 (f23 (f62 ?v0) ?v2) ?v1) f1))))
(assert (forall ((?v0 S18) (?v1 S2) (?v2 S18)) (=> (= (f26 ?v0 ?v1) f1) (= (f26 (f27 (f78 ?v0) ?v2) ?v1) f1))))
(assert (forall ((?v0 S18) (?v1 S18) (?v2 S18)) (= (forall ((?v3 S2)) (=> (= (f29 ?v3 (f27 (f78 ?v0) ?v1)) f1) (= (f26 ?v2 ?v3) f1))) (and (forall ((?v3 S2)) (=> (= (f29 ?v3 ?v0) f1) (= (f26 ?v2 ?v3) f1))) (forall ((?v3 S2)) (=> (= (f29 ?v3 ?v1) f1) (= (f26 ?v2 ?v3) f1)))))))
(assert (forall ((?v0 S16) (?v1 S16) (?v2 S16)) (= (forall ((?v3 S4)) (=> (= (f25 ?v3 (f23 (f62 ?v0) ?v1)) f1) (= (f22 ?v2 ?v3) f1))) (and (forall ((?v3 S4)) (=> (= (f25 ?v3 ?v0) f1) (= (f22 ?v2 ?v3) f1))) (forall ((?v3 S4)) (=> (= (f25 ?v3 ?v1) f1) (= (f22 ?v2 ?v3) f1)))))))
(assert (forall ((?v0 S18) (?v1 S18) (?v2 S18)) (= (exists ((?v3 S2)) (and (= (f29 ?v3 (f27 (f78 ?v0) ?v1)) f1) (= (f26 ?v2 ?v3) f1))) (or (exists ((?v3 S2)) (and (= (f29 ?v3 ?v0) f1) (= (f26 ?v2 ?v3) f1))) (exists ((?v3 S2)) (and (= (f29 ?v3 ?v1) f1) (= (f26 ?v2 ?v3) f1)))))))
(assert (forall ((?v0 S16) (?v1 S16) (?v2 S16)) (= (exists ((?v3 S4)) (and (= (f25 ?v3 (f23 (f62 ?v0) ?v1)) f1) (= (f22 ?v2 ?v3) f1))) (or (exists ((?v3 S4)) (and (= (f25 ?v3 ?v0) f1) (= (f22 ?v2 ?v3) f1))) (exists ((?v3 S4)) (and (= (f25 ?v3 ?v1) f1) (= (f22 ?v2 ?v3) f1)))))))
(assert (forall ((?v0 S16) (?v1 S16) (?v2 S16)) (let ((?v_0 (f62 ?v0))) (= (f23 (f62 (f23 ?v_0 ?v1)) ?v2) (f23 ?v_0 (f23 (f62 ?v1) ?v2))))))
(assert (forall ((?v0 S18) (?v1 S18) (?v2 S18)) (let ((?v_0 (f78 ?v0))) (= (f27 (f78 (f27 ?v_0 ?v1)) ?v2) (f27 ?v_0 (f27 (f78 ?v1) ?v2))))))
(assert (forall ((?v0 S2) (?v1 S18) (?v2 S18)) (= (= (f29 ?v0 (f27 (f78 ?v1) ?v2)) f1) (or (= (f29 ?v0 ?v1) f1) (= (f29 ?v0 ?v2) f1)))))
(assert (forall ((?v0 S4) (?v1 S16) (?v2 S16)) (= (= (f25 ?v0 (f23 (f62 ?v1) ?v2)) f1) (or (= (f25 ?v0 ?v1) f1) (= (f25 ?v0 ?v2) f1)))))
(assert (forall ((?v0 S16) (?v1 S16) (?v2 S16)) (let ((?v_1 (f62 ?v0)) (?v_0 (f62 ?v1))) (= (f23 ?v_1 (f23 ?v_0 ?v2)) (f23 ?v_0 (f23 ?v_1 ?v2))))))
(assert (forall ((?v0 S18) (?v1 S18) (?v2 S18)) (let ((?v_1 (f78 ?v0)) (?v_0 (f78 ?v1))) (= (f27 ?v_1 (f27 ?v_0 ?v2)) (f27 ?v_0 (f27 ?v_1 ?v2))))))
(assert (forall ((?v0 S16) (?v1 S16)) (let ((?v_0 (f62 ?v0))) (let ((?v_1 (f23 ?v_0 ?v1))) (= (f23 ?v_0 ?v_1) ?v_1)))))
(assert (forall ((?v0 S18) (?v1 S18)) (let ((?v_0 (f78 ?v0))) (let ((?v_1 (f27 ?v_0 ?v1))) (= (f27 ?v_0 ?v_1) ?v_1)))))
(assert (forall ((?v0 S16) (?v1 S16)) (= (f23 (f62 ?v0) ?v1) (f23 (f62 ?v1) ?v0))))
(assert (forall ((?v0 S18) (?v1 S18)) (= (f27 (f78 ?v0) ?v1) (f27 (f78 ?v1) ?v0))))
(assert (forall ((?v0 S18) (?v1 S18)) (= (f27 (f78 ?v0) ?v1) (f85 (f27 (f28 ?v0) ?v1)))))
(assert (forall ((?v0 S16) (?v1 S16)) (= (f23 (f62 ?v0) ?v1) (f84 (f23 (f24 ?v0) ?v1)))))
(assert (forall ((?v0 S16)) (= (f23 (f62 ?v0) ?v0) ?v0)))
(assert (forall ((?v0 S18)) (= (f27 (f78 ?v0) ?v0) ?v0)))
(assert (forall ((?v0 S6) (?v1 S2) (?v2 S6)) (= (f22 (f79 (f80 f81 0)) (f5 (f6 (f7 f8 ?v0) (f15 f16 ?v1)) ?v2)) f1)))
(assert (forall ((?v0 S4) (?v1 S16)) (= (f23 (f67 ?v0) ?v1) (f84 (f23 (f30 ?v0) ?v1)))))
(assert (forall ((?v0 S2) (?v1 S18)) (= (f27 (f75 ?v0) ?v1) (f85 (f27 (f31 ?v0) ?v1)))))
(assert (forall ((?v0 S18)) (= (f27 (f76 f58) ?v0) ?v0)))
(assert (forall ((?v0 S16)) (= (f23 (f77 f57) ?v0) ?v0)))
(assert (forall ((?v0 S23) (?v1 S3) (?v2 S18)) (= (f73 (f74 ?v0) (f64 (f65 ?v1) ?v2)) (f27 (f76 (f39 (f40 f41 ?v0) ?v1)) ?v2))))
(assert (forall ((?v0 S20) (?v1 S3) (?v2 S18)) (= (f23 (f77 ?v0) (f64 (f65 ?v1) ?v2)) (f64 (f65 (f34 (f35 f36 ?v0) ?v1)) ?v2))))
(assert (forall ((?v0 S3) (?v1 S23) (?v2 S16)) (= (f64 (f65 ?v0) (f73 (f74 ?v1) ?v2)) (f23 (f77 (f43 (f44 f45 ?v0) ?v1)) ?v2))))
(assert (forall ((?v0 S3) (?v1 S24) (?v2 S18)) (= (f64 (f65 ?v0) (f27 (f76 ?v1) ?v2)) (f64 (f65 (f46 (f47 f48 ?v0) ?v1)) ?v2))))
(assert (forall ((?v0 S40)) (= (f80 f81 (f82 f83 ?v0)) ?v0)))
(assert (forall ((?v0 Int)) (=> (<= 0 ?v0) (= (f82 f83 (f80 f81 ?v0)) ?v0))))
(assert (forall ((?v0 Int)) (=> (< ?v0 0) (= (f82 f83 (f80 f81 ?v0)) 0))))
(check-sat)
(exit)
